(declare-const term_to_project_onto2 Real)
(declare-const term_to_project_onto0 Real)
(declare-const tmp Int)
(declare-const term_to_project_onto1 Real)
(declare-const term_to_project_onto Real)
(declare-const term_to_project_onto3 Real)
(assert (exists
         ((uninterp?1 Int) (uninterp?2 Int) (uninterp?3 Int) (|tmp'?4| Int)
            (|c'?5| Int) (|x'?6| Int) (|y'?7| Int) (|counter'?8| Int)
            (c?9 Int) (k?10 Int) (x?11 Int) (y?12 Int) (counter?13 Int))
         (and (<= (- c?9) 0) (<= (- y?12) 0) (= (+ y?12 (- c?9)) 0)
                (<= counter?13 0)
                (= (+ (* 4 x?11) (- uninterp?2) (* -2 uninterp?1)
                        (- uninterp?3)) 0) (<= (+ (- k?10) c?9 1) 0)
                (= (+ |tmp'?4| (- counter?13)) 0) (= (+ |c'?5| (- c?9) -1) 0)
                (= (+ |x'?6| (- x?11) (- uninterp?1) (* -3 uninterp?3)
                        (* -3 y?12) -1) 0) (= (+ |y'?7| (- y?12) -1) 0)
                (= (+ |counter'?8| (- counter?13) -1) 0) (<= 0 uninterp?1)
                (<= 0 uninterp?2) (<= 0 uninterp?3)
                (= term_to_project_onto3 (+ |counter'?8| (- counter?13)))
                (= term_to_project_onto2 (+ |y'?7| (- y?12)))
                (= term_to_project_onto1 (+ |x'?6| (- x?11)))
                (= term_to_project_onto0 (+ |c'?5| (- c?9)))
                (= term_to_project_onto (+ |tmp'?4| (- tmp))))))
(check-sat)
